100
37 4
14 0
41 0
17 3
19 1
42 4
27 3
27 4
29 0
36 0
36 3
30 3
8 0
28 3
25 4
44 0
21 4
10 4
31 4
5 3
39 0
35 0
38 3
28 4
1 2
1 3
36 2
35 3
2 0
11 0
26 0
12 0
12 4
27 2
15 1
9 4
20 4
15 3
31 1
4 4
18 2
34 0
13 0
33 4
20 0
26 1
26 4
3 4
30 4
9 1
13 1
18 0
14 3
18 4
43 4
10 3
9 0
19 0
16 2
32 4
8 3
42 3
38 4
19 3
5 1
0 0
8 4
20 3
24 3
21 0
1 0
17 4
10 0
7 3
15 0
5 4
0 4
25 0
23 1
6 3
16 0
42 0
3 0
0 1
40 2
37 0
32 2
6 4
25 2
39 3
14 4
22 0
39 4
5 0
11 3
32 3
2 1
31 0
22 4
32 1

